Route #1: 93 75
Route #2: 59 60 82
Route #3: 14 49 6 37 87
Route #4: 83 51 81
Route #5: 28 42 78 65 25
Route #6: 31 46 35
Route #7: 69 16 55 76
Route #8: 32 33 53 73 95 24
Route #9: 3 77 63
Route #10: 79 11 85 30
Route #11: 20 41 22 15
Route #12: 58 12 5
Route #13: 19 97 27
Route #14: 4 13 74
Route #15: 52 91 50
Route #16: 8 17
Route #17: 34 64 96 48 26 47 38
Route #18: 23 61 100
Route #19: 1 70 54
Route #20: 89 98 99 62 71
Route #21: 44 67 88 40
Route #22: 18 10 39
Route #23: 57 72 36 29 43 45 2 7
Route #24: 80 94 56 21
Route #25: 68 90 84 66
Route #26: 92 9 86
Cost 27591.0000
Time 16.0007